
Gurobi 9.0.3 (mac64) logging started Fri Oct 30 15:33:27 2020

Gurobi Optimizer version 9.0.3 build v9.0.3rc0 (mac64)
Optimize a model with 227199 rows, 169648 columns and 764416 nonzeros
Model fingerprint: 0x81c07e03
Coefficient statistics:
  Matrix range     [1e+00, 2e+03]
  Objective range  [1e+00, 1e+00]
  Bounds range     [1e+00, 1e+00]
  RHS range        [1e+00, 3e+00]

Concurrent LP optimizer: dual simplex and barrier
Showing barrier log only...

Presolve removed 83 rows and 1 columns
Presolve time: 1.04s
Presolved: 227116 rows, 169647 columns, 763113 nonzeros

Elapsed ordering time = 5s
Elapsed ordering time = 10s
Elapsed ordering time = 15s
Elapsed ordering time = 20s
Elapsed ordering time = 25s
Elapsed ordering time = 27s
Elapsed ordering time = 30s
Elapsed ordering time = 35s
Elapsed ordering time = 38s
Elapsed ordering time = 40s
Elapsed ordering time = 45s
Elapsed ordering time = 49s
Elapsed ordering time = 50s
Elapsed ordering time = 55s
Elapsed ordering time = 60s
Elapsed ordering time = 64s
Elapsed ordering time = 65s
Elapsed ordering time = 70s
